
<<< setup

Version identifier: 22.1.0.0 | 2022-03-09 | 1a383f8ce
Tried aggregator 1 time.
LP Presolve eliminated 41 rows and 12 columns.
Reduced LP has 2 rows, 17 columns, and 17 nonzeros.
Presolve time = 0.00 sec. (0.02 ticks)

Iteration log . . .
Iteration:     1   Dual objective     =          6129.800000
main returns 0

<<< main


<<< done

